2392
0 2391 2390 2389 2388 2387 2386 2385 2384 2383 2382 2381 2380 2379 2378 2377 2369 2364 2363 2361 2360 2359 2358 2357 2356 2355 2354 2353 2352 2350 2351 2362 2347 2348 2349 2281 2279 2278 2277 2272 2271 2270 2269 2268 2265 2264 2263 2262 2261 2260 2259 2258 2257 2256 2255 2254 2253 2252 2251 2227 2226 2228 2225 2224 2223 2222 2221 2220 2219 2218 2217 2216 2214 2213 2215 2212 2211 2210 2209 2208 2230 2229 2250 2249 2248 2247 2246 2245 2244 2243 2174 2173 2172 2171 2169 2170 2166 2165 2167 2168 2164 2163 2162 2161 2160 2159 2156 2158 2157 2155 2154 2153 2152 2151 2150 2177 2176 2175 2183 2184 2182 2181 2178 2180 2179 2148 2149 2147 2146 2145 2144 2143 2142 2141 2140 2139 2138 2192 2191 2190 2189 2188 2187 2185 2186 2241 2240 2239 2238 2237 2236 2235 2234 2242 2233 2232 2231 2207 2206 2205 2204 2203 2202 2201 2200 2199 2198 2197 2196 2193 2195 2194 2135 2136 2137 2134 2133 2132 2131 2130 2129 1604 1603 1602 1601 1600 1599 1598 1597 1596 1595 1594 1593 1592 1591 1589 1588 1587 1586 1585 1584 1583 1582 1581 1580 1579 1590 1621 1620 1619 1608 1609 1610 1611 1618 1617 1616 1615 1614 1613 1612 2053 2054 2067 2068 2069 2070 2071 2073 2072 1607 1605 1606 2128 2127 2126 2125 2124 2123 2122 2121 2120 2119 2118 2117 2116 2112 2115 2114 2074 2075 2076 2077 2113 2078 2079 2080 2081 2082 2083 2084 2085 2086 2087 2103 2107 2108 2111 2110 2109 2106 2105 2104 2102 2101 2100 2099 2098 2097 2096 2095 2094 2093 2091 2092 2088 2089 2090 2019 2016 2010 2009 2008 2007 2006 2005 2004 2038 2039 2040 2041 2042 2043 2036 2037 2030 2011 2012 2013 2014 2015 2017 2018 2020 2021 2022 2023 2026 2027 2025 2024 2028 2029 2031 2032 2033 2035 2034 2061 2060 2058 2057 2056 2064 2063 2062 2065 2066 2055 2052 2051 2050 2049 2048 2047 2059 2046 2045 2044 1646 1644 1643 1638 1637 1639 1640 1642 1641 1662 1663 1661 1645 1647 1648 1649 1650 1651 1652 1653 1654 1655 1657 1656 1660 1659 1658 1726 1664 1666 1665 1674 1673 1672 1671 1670 1667 1668 1669 1635 1634 1633 1636 1630 1632 1631 1629 1628 1627 1626 1625 1624 1623 1622 1578 1577 1576 1575 1574 1573 1572 1571 1570 1569 1568 1567 1566 1565 1564 1563 1562 1561 1559 1558 1557 1556 1555 1546 1545 1544 1543 1542 1547 1548 1549 1455 1454 1551 1550 1552 1554 1553 1019 1018 1017 1016 1015 1014 1013 1012 1011 1009 1008 1007 1006 1005 1004 1003 1002 1001 1000 999 998 997 996 995 994 993 893 892 891 890 894 895 817 818 819 820 821 826 822 825 824 823 887 888 889 886 885 884 883 882 881 880 879 1010 1560 878 877 876 875 874 873 872 871 870 868 869 1682 1681 1680 1679 1678 1677 1675 1676 1683 1684 1685 866 1686 1687 1690 1691 1692 1693 1694 1696 1695 1689 1688 865 867 864 863 861 862 1697 1698 1699 1700 1701 1702 1703 1710 1711 1712 1713 1716 1717 1719 1718 1724 1723 1720 1721 1722 1725 1727 1728 1729 1730 1731 1732 1733 1734 1715 1714 1709 1708 1707 1706 1705 1704 847 848 849 842 843 844 845 846 1741 1740 1739 1738 1737 1736 1735 1845 1846 1844 1843 1839 1840 1842 1841 1837 1838 1836 1835 1834 1833 1832 1831 1830 1828 1827 1829 1826 1825 1824 1823 1822 1821 1820 1819 1818 1817 1816 1815 1869 1868 1867 1866 1865 1864 1863 1862 1861 1860 1859 1858 1857 1856 1855 1854 1853 1852 1851 1850 1849 1848 1847 2003 2002 2001 2000 1999 1998 1997 1996 1995 1994 1993 1992 1991 1990 1964 1963 1962 1961 1960 1959 1951 1950 1946 1945 1944 1943 1942 1941 1938 1940 1939 1937 1936 1935 1934 1933 1932 1931 1930 1929 1928 1927 1926 1925 1924 1922 1921 1923 1918 1920 1919 1916 1917 1915 1914 1913 1912 1911 1910 1909 1908 1907 1906 1905 1904 1903 1902 1901 1900 1899 1898 1897 1896 1895 1894 1893 1891 1892 1889 1948 1947 1949 1888 1887 1886 1890 1885 1884 1883 1882 1881 1880 1878 1879 1953 1952 1954 1955 1956 1958 1957 1968 1969 1982 1983 1967 1966 1965 1989 1988 1987 1986 1985 1984 1981 1980 1979 1978 1977 1971 1970 1972 1877 1876 1973 1976 1975 1974 1875 1874 1873 1872 1871 1870 1813 1812 1814 1811 1810 1809 1808 1807 1806 1805 1804 1803 1802 1801 1769 1768 1767 1766 1765 1764 1763 1762 1761 1760 1758 1757 1759 1756 1755 1754 1753 1748 1747 1746 1745 1744 1742 1743 1749 1750 1751 1752 1781 1780 1779 1782 1783 1778 1777 1776 1775 1774 1773 1772 1771 1770 1800 1799 1798 1797 1796 1795 1794 1793 1792 1791 1790 1789 1788 1784 1785 1786 1787 651 650 649 648 647 646 645 644 643 642 641 640 639 638 637 636 633 632 631 630 629 628 627 625 626 717 718 719 624 623 720 722 721 622 621 620 619 618 617 559 561 558 557 555 554 553 552 551 550 548 549 542 541 540 539 538 537 534 533 532 531 535 536 544 543 545 546 547 523 524 525 530 529 526 528 527 504 505 522 521 520 519 518 517 516 515 514 513 512 511 510 509 508 507 506 503 502 501 500 499 498 497 496 495 494 493 492 491 490 489 488 487 486 485 484 483 482 592 593 591 590 586 587 589 588 584 585 583 582 581 580 579 578 577 575 574 576 573 572 571 570 569 568 567 566 565 564 563 556 562 560 616 615 614 613 612 611 610 609 608 607 606 605 604 603 601 602 726 725 723 724 727 728 731 732 733 734 735 736 713 714 730 729 716 715 702 703 701 700 699 697 698 706 693 696 635 634 695 694 692 691 690 689 688 685 687 652 653 654 686 655 656 657 658 659 660 661 662 663 664 665 666 667 670 668 669 671 672 673 674 675 676 677 678 679 684 683 682 680 681 707 708 705 704 709 710 711 712 737 738 739 741 742 740 600 599 598 597 596 595 594 750 749 743 744 745 746 748 747 756 757 755 754 753 752 751 936 937 938 939 940 933 934 935 788 787 786 785 784 783 778 777 758 759 760 761 762 763 764 765 766 839 838 840 841 837 852 850 851 853 854 860 859 858 857 855 856 835 836 834 833 829 828 827 830 831 832 770 769 768 767 774 773 771 772 775 776 779 780 781 782 789 790 791 792 793 794 795 796 797 798 802 803 804 805 806 807 808 809 810 811 812 813 814 815 816 801 800 799 897 896 898 899 900 901 902 903 904 905 906 992 991 990 989 988 987 981 982 983 984 985 986 376 375 374 373 372 371 370 369 368 367 366 364 365 363 362 361 360 359 358 357 354 356 355 353 1146 1145 1142 1140 1139 1138 1137 1136 1109 1108 1107 1110 1133 1130 1131 1132 1114 1118 1119 1117 1116 1115 1124 1123 1122 1121 1120 1088 1086 1087 1094 1093 1092 1091 1090 1089 1113 1112 1111 1106 1105 1104 1103 1102 1101 1100 1099 1098 1097 1096 1095 1085 1084 1083 1082 1081 1080 1079 1078 1075 1077 1076 1074 1073 1072 1071 1070 1069 1068 1067 1066 1065 1064 1063 1060 1062 1061 1030 1031 1029 1028 1027 1026 1025 1024 1023 1022 1021 1020 1453 1452 1451 1450 1449 1448 1447 1446 1443 1442 1441 1440 1439 1438 1437 1462 1461 1460 1444 1445 1456 1457 1458 1459 1469 1468 1470 1471 1472 1473 1474 1475 1476 1477 1480 1479 1478 1539 1540 1541 1537 1536 1535 1538 1533 1534 1532 1531 1530 1529 1528 1527 1526 1525 1524 1523 1522 1521 1520 1518 1519 1517 1516 1515 1514 1513 1512 1511 1508 1507 1509 1510 1502 1501 1497 1498 1496 1495 1494 1493 1492 1491 1490 1488 1487 1489 1486 1485 1484 1483 1482 1481 1467 1466 1465 1463 1464 1499 1500 1503 1504 1505 1506 1329 1330 1331 1332 1408 1335 1336 1334 1333 1337 1322 1324 1325 1326 1327 1328 2266 2267 2273 2274 2275 2276 2280 2282 2283 2284 2285 2288 2289 2287 2286 2290 2291 2292 2293 2294 2295 2296 2297 2298 2299 2300 2301 2302 2303 2304 2305 2307 2306 1323 1321 1320 1314 1315 1316 1317 1319 1318 1339 1338 1340 1341 1343 1342 1402 1405 1406 1404 1403 1407 1409 1410 1411 1412 1413 1414 1415 1416 1417 1418 1419 1420 1421 1422 1423 1238 1239 1386 1387 1388 1389 1390 1391 1392 1393 1394 1395 1396 1397 1398 1399 1400 1401 1366 1367 1368 1369 1370 1371 1372 1375 1376 1377 1378 1379 1380 1381 1382 1383 1384 1385 1240 1241 1242 1243 1245 1246 1244 1229 1233 1232 1230 1231 1234 1235 1236 1237 1043 1044 1045 1046 1050 1049 1048 1047 1039 1040 1041 1042 1424 1425 1426 1427 1428 1429 1430 1436 1435 1431 1433 1434 1432 1038 1037 1036 1035 1034 1033 1032 1059 1058 1057 1052 1051 1053 1054 1055 1056 1125 1126 1127 1128 1129 1134 1135 1141 1143 1144 1147 1148 1149 1150 1151 1152 1153 1154 1155 1156 1157 1158 1159 1160 1161 1162 1163 1164 1165 1166 1167 1168 1169 1170 1171 1172 1173 1174 1175 1176 1177 1178 1179 1180 1181 1182 1183 1184 1185 1186 1187 1189 1188 170 171 172 173 174 175 176 177 178 179 169 167 166 160 161 162 163 165 164 168 184 185 186 183 180 181 182 187 189 188 250 247 252 251 254 257 351 352 350 349 348 347 346 345 344 343 342 341 340 339 338 337 336 334 333 335 332 331 330 329 328 327 314 313 312 311 310 309 308 307 306 290 291 304 305 316 315 317 318 319 320 321 322 323 326 325 324 385 386 384 379 377 378 380 381 382 383 387 388 971 970 969 968 967 966 972 973 974 975 976 977 978 979 980 907 908 909 910 911 912 913 914 916 917 915 918 919 957 956 955 952 953 954 920 921 922 923 924 925 926 927 928 929 931 932 930 946 947 948 949 951 950 958 959 960 961 962 419 420 421 422 423 424 425 438 437 426 427 436 435 428 430 429 434 433 432 431 463 464 465 466 467 470 471 469 468 472 944 945 941 942 943 473 474 475 476 477 478 479 480 481 462 461 460 459 458 457 456 455 454 453 452 451 450 449 448 447 446 445 444 443 442 441 440 439 417 418 416 415 414 413 412 411 410 409 408 963 965 964 406 407 405 404 403 402 401 392 391 390 389 393 395 394 303 302 301 300 397 396 400 399 398 299 298 297 296 295 294 293 292 289 288 287 286 285 284 283 282 281 280 279 278 277 276 275 274 273 272 271 270 269 268 267 266 265 264 263 262 261 260 259 258 256 255 253 246 248 249 245 244 243 242 241 240 239 238 237 236 235 234 233 232 231 230 229 228 227 226 225 224 223 222 221 220 219 218 217 216 215 214 213 212 211 210 209 208 207 206 205 204 203 202 201 200 199 194 193 190 191 192 195 196 197 198 132 131 133 134 135 136 137 138 139 140 141 128 129 130 125 126 124 123 122 121 120 119 118 117 116 115 114 113 112 111 110 109 108 107 106 127 105 104 103 102 101 100 99 98 97 96 95 94 93 92 91 90 89 88 87 86 85 84 83 82 81 80 79 78 142 143 144 145 146 147 148 149 150 151 152 154 153 156 157 159 158 1192 1191 1190 1193 1194 1195 1196 1197 1198 1199 1202 1200 1201 155 1203 1204 1205 1206 1213 1214 1215 1216 1217 1218 1219 1220 1221 1222 1223 1224 1225 1226 1228 1227 1248 1247 1249 1250 1251 1252 1253 1254 1255 1256 1257 1258 1259 1260 1261 1262 1263 1264 1265 1266 1267 1210 1211 1212 1207 1208 1209 77 76 75 74 73 72 71 70 69 68 67 66 65 64 63 62 61 60 59 58 57 56 55 54 53 52 51 50 49 48 1268 1269 1270 1271 1272 1273 1274 1275 1276 1278 1277 1374 1373 1360 1361 1362 1363 1364 1365 1359 1358 1357 1356 1355 1354 1353 1348 1347 1344 1345 1346 1349 1350 1351 1352 1286 1285 1287 1288 1289 1290 1291 1292 1293 1294 1295 1282 1283 1284 1279 1280 1281 47 46 45 44 43 42 41 40 39 38 37 36 35 34 33 32 31 30 29 28 27 26 25 24 23 22 21 20 19 18 1296 1297 1298 1299 1300 1301 1302 1303 1304 1305 1306 1308 1307 1310 1311 1313 1312 2310 2309 2308 2311 2312 2313 2314 2315 2316 2317 2320 2318 2319 1309 2321 2322 2323 2324 2331 2332 2333 2334 2335 2336 2337 2338 2339 2340 2341 2342 2343 2344 2346 2345 2366 2365 2367 2368 2370 2371 2372 2373 2374 2375 2376 2328 2329 2330 2325 2326 2327 17 16 15 14 13 12 11 10 9 8 7 6 5 4 3 2 1 
